n = 50;
C = 236;
w = [222,136,467,135,312,267,321,192,383,204,35,480,331,409,281,362,288,122,151,224,119,237,480,198,19,455,103,251,206,420,129,293,82,303,200,1,12,16,387,41,412,364,136,193,251,188,160,195,332,331];
p = [104,321,221,7,224,186,370,230,473,401,6,330,127,417,249,214,392,95,429,87,440,321,12,246,480,426,31,384,138,267,476,379,335,73,25,68,213,176,407,340,278,90,240,213,319,430,354,127,333,150];
